50
120
100
96
96
91
84
83
83
83
81
81
80
80
77
77
72
70
70
68
68
67
65
64
63
62
60
59
58
51
51
50
49
47
47
47
46
45
43
43
41
38
37
36
35
31
31
29
28
27
26
20
